language Essence 1.3

letting blksize_delta be function(1 --> 7, 2 --> 7, 3 --> 7, 4 --> 7, 5 --> 7, 6 --> 7, 7 --> 7, 8 --> 7, 9 --> 7)
letting maxcars be function(1 --> 9, 2 --> 9, 3 --> 9, 4 --> 9, 5 --> 9, 6 --> 10, 7 --> 9, 8 --> 9, 9 --> 9)
letting n_cars be 237
letting n_classes be 78
letting n_options be 9
letting quantity be
        function(1 --> 3, 2 --> 3, 3 --> 4, 4 --> 3, 5 --> 3, 6 --> 3, 7 --> 3, 8 --> 3, 9 --> 3, 10 --> 3, 11 --> 5,
                 12 --> 3, 13 --> 3, 14 --> 3, 15 --> 3, 16 --> 3, 17 --> 3, 18 --> 3, 19 --> 3, 20 --> 3, 21 --> 3,
                 22 --> 3, 23 --> 3, 24 --> 3, 25 --> 3, 26 --> 3, 27 --> 3, 28 --> 3, 29 --> 3, 30 --> 3, 31 --> 3,
                 32 --> 3, 33 --> 3, 34 --> 3, 35 --> 3, 36 --> 3, 37 --> 3, 38 --> 3, 39 --> 3, 40 --> 3, 41 --> 3,
                 42 --> 3, 43 --> 3, 44 --> 3, 45 --> 3, 46 --> 3, 47 --> 3, 48 --> 3, 49 --> 3, 50 --> 3, 51 --> 3,
                 52 --> 3, 53 --> 3, 54 --> 3, 55 --> 3, 56 --> 3, 57 --> 3, 58 --> 3, 59 --> 3, 60 --> 3, 61 --> 3,
                 62 --> 3, 63 --> 3, 64 --> 3, 65 --> 3, 66 --> 3, 67 --> 3, 68 --> 3, 69 --> 3, 70 --> 3, 71 --> 3,
                 72 --> 3, 73 --> 3, 74 --> 3, 75 --> 3, 76 --> 3, 77 --> 3, 78 --> 3)
letting usage be
        relation((1, 2), (2, 4), (3, 9), (4, 8), (5, 9), (6, 8), (7, 2), (7, 4), (7, 7), (8, 5), (9, 2), (10, 9),
                 (11, 9), (12, 4), (12, 7), (13, 1), (13, 8), (14, 7), (15, 9), (16, 1), (17, 1), (17, 6), (17, 7),
                 (17, 8), (18, 9), (19, 9), (20, 9), (21, 7), (22, 1), (23, 9), (24, 9), (25, 4), (25, 9), (26, 9),
                 (27, 3), (27, 7), (28, 8), (29, 9), (30, 4), (30, 6), (31, 9), (32, 9), (33, 9), (34, 6), (34, 9),
                 (35, 9), (36, 9), (37, 1), (37, 3), (37, 9), (38, 7), (39, 1), (39, 4), (40, 4), (41, 9), (42, 2),
                 (43, 9), (44, 9), (45, 4), (45, 9), (46, 1), (46, 2), (46, 8), (47, 9), (48, 9), (49, 3), (50, 8),
                 (51, 9), (52, 9), (53, 5), (53, 6), (53, 7), (54, 9), (55, 2), (55, 7), (55, 8), (56, 9), (57, 8),
                 (58, 9), (59, 5), (59, 8), (60, 2), (60, 8), (61, 9), (62, 9), (63, 6), (63, 8), (64, 5), (64, 7),
                 (65, 2), (66, 2), (67, 3), (68, 9), (69, 3), (70, 9), (71, 5), (71, 7), (72, 2), (72, 9), (73, 8),
                 (74, 5), (74, 7), (75, 5), (76, 9), (77, 9), (78, 9))
$ Visualisation for usage
$  1  2
$  2  4
$  3  9
$  4  8
$  5  9
$  6  8
$  7  2
$  7  4
$  7  7
$  8  5
$  9  2
$ 10  9
$ 11  9
$ 12  4
$ 12  7
$ 13  1
$ 13  8
$ 14  7
$ 15  9
$ 16  1
$ 17  1
$ 17  6
$ 17  7
$ 17  8
$ 18  9
$ 19  9
$ 20  9
$ 21  7
$ 22  1
$ 23  9
$ 24  9
$ 25  4
$ 25  9
$ 26  9
$ 27  3
$ 27  7
$ 28  8
$ 29  9
$ 30  4
$ 30  6
$ 31  9
$ 32  9
$ 33  9
$ 34  6
$ 34  9
$ 35  9
$ 36  9
$ 37  1
$ 37  3
$ 37  9
$ 38  7
$ 39  1
$ 39  4
$ 40  4
$ 41  9
$ 42  2
$ 43  9
$ 44  9
$ 45  4
$ 45  9
$ 46  1
$ 46  2
$ 46  8
$ 47  9
$ 48  9
$ 49  3
$ 50  8
$ 51  9
$ 52  9
$ 53  5
$ 53  6
$ 53  7
$ 54  9
$ 55  2
$ 55  7
$ 55  8
$ 56  9
$ 57  8
$ 58  9
$ 59  5
$ 59  8
$ 60  2
$ 60  8
$ 61  9
$ 62  9
$ 63  6
$ 63  8
$ 64  5
$ 64  7
$ 65  2
$ 66  2
$ 67  3
$ 68  9
$ 69  3
$ 70  9
$ 71  5
$ 71  7
$ 72  2
$ 72  9
$ 73  8
$ 74  5
$ 74  7
$ 75  5
$ 76  9
$ 77  9
$ 78  9

